; User Access Policy in SMT-LIB

; Declare sorts for users, resources, and roles
(declare-sort User 0)
(declare-sort Resource 0)
(declare-sort Role 0)

; Declare functions for user roles and resource permissions
(declare-fun hasRole (User Role) Bool)
(declare-fun canAccess (User Resource) Bool)
(declare-fun requiresRole (Resource Role) Bool)

; Define a safety property: A user can access a resource only if they have the required role
(assert (forall ((u User) (r Resource))
    (=> (canAccess u r)
            (exists ((role Role))
                (and (requiresRole r role) (hasRole u role))))))

; Add some example constraints
(declare-const alice User)
(declare-const bob User)
(declare-const file1 Resource)
(declare-const admin Role)
(declare-const editor Role)

; Example roles and permissions
(assert (hasRole alice admin))
(assert (hasRole bob editor))
(assert (requiresRole file1 admin))

; Assert that Bob cannot access file1 (safety check)
(assert (canAccess bob file1))

; Check if the policy is safe
(check-sat)

(get-model)

(get-value ((canAccess alice file1) (canAccess bob file1)))
(get-value ((hasRole alice admin) (hasRole bob editor)))
(get-value ((requiresRole file1 admin)))
(get-value ((alice bob file1 admin editor)))  ; Get values for users, resources, and roles